HUN,8,6,190
2,11,0,6,1,25,4,25,3,10,5,20
2,22,0,26,1,28,3,16,4,14,5,11
2,12,1,10,0,19,4,1,3,11,5,18
1,19,2,15,0,14,4,7,3,14,5,1
0,24,1,5,2,14,5,24,4,1,3,22
2,6,1,16,0,28,3,10,4,11,5,10
1,16,0,11,2,6,5,29,4,22,3,25
1,17,2,21,0,20,4,4,3,4,5,12
